NAME physical change_srl_ilp
* Max problem is converted into Min one
ROWS
 N  OBJ
 L  constraint1_3850
 L  constraint2_3850
 L  constraint2_3851
 L  constraint2_3852
 L  constraint2_3853
 L  constraint2_3730
 L  constraint2_3731
 L  constraint2_3732
 L  constraint2_3733
COLUMNS
    MARKER    'MARKER'                 'INTORG'
    Z_385_0_0  OBJ       -4.5052586122696480e-03
    Z_385_0_0  constraint1_3850  1
    Z_385_0_0  constraint2_3850  1
    Z_385_0_1  OBJ       -2.5035762746347515e-02
    Z_385_0_1  constraint1_3850  1
    Z_385_0_1  constraint2_3851  1
    Z_385_0_2  OBJ       -5.7078941938368960e-03
    Z_385_0_2  constraint1_3850  1
    Z_385_0_2  constraint2_3852  1
    Z_385_0_3  OBJ       -4.4532393966434787e-04
    Z_385_0_3  constraint1_3850  1
    Z_385_0_3  constraint2_3853  1
    Z_385_0_4  OBJ       -8.6430576050788166e-01
    Z_385_0_4  constraint1_3850  1
    MARKER    'MARKER'                 'INTEND'
RHS
    RHS1      constraint1_3850  1
    RHS1      constraint2_3850  1
    RHS1      constraint2_3851  1
    RHS1      constraint2_3852  1
    RHS1      constraint2_3853  1
    RHS1      constraint2_3730  1
    RHS1      constraint2_3731  1
    RHS1      constraint2_3732  1
    RHS1      constraint2_3733  1
BOUNDS
 UP BND1      Z_385_0_0  1
 UP BND1      Z_385_0_1  1
 UP BND1      Z_385_0_2  1
 UP BND1      Z_385_0_3  1
 UP BND1      Z_385_0_4  1
ENDATA
